nPersones=32;
nLinies=8;
nFiles=4;
nNingus=2;
nDies=5;
maxTornsPerDia=2;
maxTornsSetmana = [9,9,9,9,9,9,9,9,9,9,9,9,9,9,9,9,9,9,9,9,9,9,9,9,9,9,9,9,9,9,9,9];
indisponibilitats = [| {1,3,4}, {1}, {1}, {1}, {1},
| {2}, {2}, {2}, {2}, {2},
| {3}, {3}, {3}, {3}, {3},
| {4}, {4}, {4}, {4}, {4},
| {1}, {2}, {3}, {4}, {1},
| {2}, {3}, {4}, {1}, {2},
| {3}, {4}, {1}, {2}, {3},
| {4}, {1}, {2}, {3}, {4},
| {4}, {3}, {2}, {1}, {4},
| {2}, {1}, {3}, {4}, {2},
| {1}, {2}, {3}, {4}, {1},
| {2}, {3}, {4}, {1}, {2},
| {3}, {4}, {1}, {2}, {3},
| {4}, {1}, {2}, {3}, {4},
| {4}, {3}, {2}, {1}, {4},
| {2}, {1}, {3}, {4}, {2},
| {1}, {1}, {1}, {1}, {1},
| {2}, {2}, {2}, {2}, {2},
| {3}, {3}, {3}, {3}, {3},
| {4}, {4}, {4}, {4}, {4},
| {1}, {2}, {3}, {4}, {1},
| {2}, {3}, {4}, {1}, {2},
| {3}, {4}, {1}, {2}, {3},
| {4}, {1}, {2}, {3}, {4},
| {4}, {3}, {2}, {1}, {4},
| {2}, {1}, {3}, {4}, {2},
| {1}, {2}, {3}, {4}, {1},
| {2}, {3}, {4}, {1}, {2},
| {3}, {4}, {1}, {2}, {3},
| {4}, {1}, {2}, {3}, {4},
| {4}, {3}, {2}, {1}, {4},
| {2}, {1}, {3}, {4}, {2},
|];